c Sudoku solution
p cnf 729 0
111 0
136 0
223 0
254 0
281 0
328 0
337 0
352 0
385 0
453 0
461 0
341 0
482 0
499 0
527 0
578 0
664 0
673 0
691 0
531 0
513 0
819 0
314 0
821 0
838 0
912 0
717 0
215 0
955 0
751 0
971 0
998 0
188 0
658 0
418 0
616 0
687 0
447 0
476 0
595 0
584 0
645 0
165 0
379 0
967 0
856 0
883 0
862 0
844 0
542 0
246 0
363 0
149 0
268 0
157 0
193 0
396 0
174 0
122 0
239 0
629 0
632 0
748 0
943 0
769 0
733 0
934 0
926 0
725 0
786 0
989 0
424 0
435 0
559 0
566 0
772 0
794 0
277 0
292 0
875 0
897 0
